(set-info :smt-lib-version 2.6)
(set-logic UF)
(set-info :source |Benchmarks from the paper: "Extending Sledgehammer with SMT Solvers" by Jasmin Blanchette, Sascha Bohme, and Lawrence C. Paulson, CADE 2011.  Translated to SMT2 by Andrew Reynolds and Morgan Deters.|)
(set-info :category "industrial")
(set-info :status unknown)
(declare-sort S1 0)
(declare-sort S2 0)
(declare-sort S3 0)
(declare-sort S4 0)
(declare-sort S5 0)
(declare-sort S6 0)
(declare-sort S7 0)
(declare-sort S8 0)
(declare-sort S9 0)
(declare-sort S10 0)
(declare-sort S11 0)
(declare-sort S12 0)
(declare-sort S13 0)
(declare-sort S14 0)
(declare-sort S15 0)
(declare-sort S16 0)
(declare-sort S17 0)
(declare-sort S18 0)
(declare-sort S19 0)
(declare-sort S20 0)
(declare-sort S21 0)
(declare-sort S22 0)
(declare-sort S23 0)
(declare-sort S24 0)
(declare-sort S25 0)
(declare-sort S26 0)
(declare-sort S27 0)
(declare-sort S28 0)
(declare-sort S29 0)
(declare-sort S30 0)
(declare-sort S31 0)
(declare-sort S32 0)
(declare-sort S33 0)
(declare-sort S34 0)
(declare-sort S35 0)
(declare-sort S36 0)
(declare-sort S37 0)
(declare-fun f1 () S1)
(declare-fun f2 () S1)
(declare-fun f3 (S2 S3) S1)
(declare-fun f4 (S4 S5) S2)
(declare-fun f5 () S4)
(declare-fun f6 (S6 S7) S5)
(declare-fun f7 () S6)
(declare-fun f8 () S7)
(declare-fun f9 (S8 S3) S3)
(declare-fun f10 () S8)
(declare-fun f11 (S9 S10) S3)
(declare-fun f12 (S11 S12) S9)
(declare-fun f13 () S11)
(declare-fun f14 () S12)
(declare-fun f15 (S13 S10) S10)
(declare-fun f16 (S14 S15) S13)
(declare-fun f17 () S14)
(declare-fun f18 (S16 S5) S15)
(declare-fun f19 (S17 S12) S16)
(declare-fun f20 (S18 S12) S17)
(declare-fun f21 () S18)
(declare-fun f22 () S12)
(declare-fun f23 () S5)
(declare-fun f24 () S10)
(declare-fun f25 (S19 S20) S1)
(declare-fun f26 (S21 S15) S19)
(declare-fun f27 () S21)
(declare-fun f28 () S12)
(declare-fun f29 () S12)
(declare-fun f30 (S22 S5) S5)
(declare-fun f31 (S23 S7) S22)
(declare-fun f32 () S23)
(declare-fun f33 (S24 S12) S7)
(declare-fun f34 () S24)
(declare-fun f35 (S25 S5) S22)
(declare-fun f36 () S25)
(declare-fun f37 () S5)
(declare-fun f38 (S26 S12) S5)
(declare-fun f39 () S26)
(declare-fun f40 () S12)
(declare-fun f41 (S27 S10) S20)
(declare-fun f42 () S27)
(declare-fun f43 () S6)
(declare-fun f44 () S7)
(declare-fun f45 () S8)
(declare-fun f46 (S28 S29) S1)
(declare-fun f47 (S30 S12) S28)
(declare-fun f48 () S30)
(declare-fun f49 () S29)
(declare-fun f50 (S31 S32) S1)
(declare-fun f51 (S33 S10) S31)
(declare-fun f52 () S33)
(declare-fun f53 () S32)
(declare-fun f54 () S8)
(declare-fun f55 (S35 S34) S1)
(declare-fun f56 (S36 S7) S35)
(declare-fun f57 () S36)
(declare-fun f58 (S34 S7) S1)
(declare-fun f59 (S32 S10) S1)
(declare-fun f60 (S29 S12) S1)
(declare-fun f61 (S20 S15) S1)
(declare-fun f62 (S3 S5) S1)
(declare-fun f63 () S32)
(declare-fun f64 () S17)
(declare-fun f65 () S34)
(declare-fun f66 () S9)
(declare-fun f67 (S37 S3) S34)
(declare-fun f68 () S37)
(assert (not (= f1 f2)))
(assert (let ((?v_0 (f6 f7 f8)) (?v_2 (f15 (f16 f17 (f18 (f19 (f20 f21 f14) f22) f23)) f24))) (let ((?v_4 (f11 (f12 f13 f14) ?v_2)) (?v_1 (f35 f36 ?v_0)) (?v_6 (f41 f42 ?v_2)) (?v_3 (f6 f43 f44))) (let ((?v_5 (f30 (f31 f32 f8) (f30 (f35 f36 ?v_3) ?v_3)))) (not (=> (not (= (f3 (f4 f5 ?v_0) (f9 f10 ?v_4)) f1)) (=> (= (f25 (f26 f27 (f18 (f19 (f20 f21 f28) f29) (f30 (f31 f32 (f33 f34 f29)) (f30 (f35 f36 f37) (f30 (f35 f36 (f38 f39 f40)) (f30 ?v_1 (f30 (f31 f32 (f33 f34 f40)) (f30 ?v_1 (f38 f39 f29))))))))) ?v_6) f1) (=> (= (f3 (f4 f5 ?v_5) (f9 f45 ?v_4)) f1) (= (f25 (f26 f27 (f18 (f19 (f20 f21 f29) f40) ?v_5)) ?v_6) f1)))))))))
(assert (not (= (f46 (f47 f48 f40) f49) f1)))
(assert (= (f50 (f51 f52 f24) f53) f1))
(assert (let ((?v_0 (f6 f7 f8))) (let ((?v_1 (f35 f36 ?v_0)) (?v_2 (f6 f43 f44))) (let ((?v_4 (f30 (f31 f32 f8) (f30 (f35 f36 ?v_2) ?v_2))) (?v_3 (f11 (f12 f13 f14) f24)) (?v_5 (f41 f42 f24))) (=> (not (= (f3 (f4 f5 ?v_0) (f9 f10 ?v_3)) f1)) (=> (= (f25 (f26 f27 (f18 (f19 (f20 f21 f28) f29) (f30 (f31 f32 (f33 f34 f29)) (f30 (f35 f36 f37) (f30 (f35 f36 (f38 f39 f40)) (f30 ?v_1 (f30 (f31 f32 (f33 f34 f40)) (f30 ?v_1 (f38 f39 f29))))))))) ?v_5) f1) (=> (= (f3 (f4 f5 ?v_4) (f9 f45 ?v_3)) f1) (= (f25 (f26 f27 (f18 (f19 (f20 f21 f29) f40) ?v_4)) ?v_5) f1))))))))
(assert (= (f3 (f4 f5 f23) (f9 f54 (f9 f10 (f11 (f12 f13 f14) f24)))) f1))
(assert (forall ((?v0 S10) (?v1 S12)) (=> (= (f50 (f51 f52 ?v0) f53) f1) (= (= (f3 (f4 f5 (f6 f7 (f33 f34 ?v1))) (f9 f10 (f11 (f12 f13 f14) ?v0))) f1) (= (f46 (f47 f48 ?v1) f49) f1)))))
(assert (forall ((?v0 S10) (?v1 S12)) (=> (= (f50 (f51 f52 ?v0) f53) f1) (= (= (f3 (f4 f5 (f6 f7 (f33 f34 ?v1))) (f9 f45 (f11 (f12 f13 f14) ?v0))) f1) (= (f46 (f47 f48 ?v1) f49) f1)))))
(assert (forall ((?v0 S10) (?v1 S12) (?v2 S12) (?v3 S7) (?v4 S12) (?v5 S7) (?v6 S5)) (let ((?v_1 (f6 f43 ?v3)) (?v_0 (f35 f36 (f38 f39 ?v4))) (?v_2 (f41 f42 ?v0)) (?v_3 (f20 f21 ?v1))) (=> (= (f50 (f51 f52 ?v0) f53) f1) (=> (not (= ?v1 f28)) (=> (= (f25 (f26 f27 (f18 (f19 (f20 f21 ?v2) ?v1) (f30 (f31 f32 (f33 f34 ?v1)) (f30 (f35 f36 ?v_1) (f30 ?v_0 (f30 (f35 f36 (f6 f7 ?v5)) ?v6)))))) ?v_2) f1) (=> (= (f25 (f26 f27 (f18 (f19 ?v_3 f28) (f30 (f35 f36 (f38 f39 ?v1)) (f30 ?v_0 ?v_1)))) ?v_2) f1) (= (f50 (f51 f52 (f15 (f16 f17 (f18 (f19 ?v_3 ?v4) ?v6)) ?v0)) f53) f1))))))))
(assert (forall ((?v0 S10) (?v1 S7) (?v2 S12) (?v3 S5) (?v4 S12) (?v5 S5) (?v6 S7)) (let ((?v_0 (f6 f7 ?v1)) (?v_1 (f11 (f12 f13 f14) ?v0)) (?v_3 (f41 f42 ?v0)) (?v_2 (f30 (f31 f32 ?v1) (f6 f43 ?v6)))) (=> (= (f50 (f51 f52 ?v0) f53) f1) (=> (not (= (f3 (f4 f5 ?v_0) (f9 f10 ?v_1)) f1)) (=> (= (f25 (f26 f27 (f18 (f19 (f20 f21 f28) ?v2) (f30 (f31 f32 (f33 f34 ?v2)) (f30 (f35 f36 ?v3) (f30 (f35 f36 (f38 f39 ?v4)) (f30 (f35 f36 ?v_0) ?v5)))))) ?v_3) f1) (=> (= (f3 (f4 f5 ?v_2) (f9 f45 ?v_1)) f1) (= (f25 (f26 f27 (f18 (f19 (f20 f21 ?v4) ?v2) ?v_2)) ?v_3) f1))))))))
(assert (forall ((?v0 S10) (?v1 S5) (?v2 S12)) (=> (= (f50 (f51 f52 ?v0) f53) f1) (=> (= (f3 (f4 f5 ?v1) (f9 f54 (f9 f10 (f11 (f12 f13 f14) ?v0)))) f1) (= (f50 (f51 f52 (f15 (f16 f17 (f18 (f19 (f20 f21 f14) ?v2) ?v1)) ?v0)) f53) f1)))))
(assert (forall ((?v0 S12) (?v1 S5) (?v2 S12) (?v3 S7) (?v4 S5) (?v5 S10)) (let ((?v_0 (f30 (f31 f32 (f33 f34 ?v0)) (f30 (f35 f36 ?v1) (f30 (f35 f36 (f38 f39 ?v2)) (f30 (f35 f36 (f6 f7 ?v3)) ?v4)))))) (=> (= (f3 (f4 f5 ?v_0) (f9 f45 (f11 (f12 f13 f14) ?v5))) f1) (=> (not (= (f46 (f47 f48 ?v0) f49) f1)) (=> (= (f50 (f51 f52 ?v5) f53) f1) (= (f25 (f26 f27 (f18 (f19 (f20 f21 f28) ?v0) ?v_0)) (f41 f42 ?v5)) f1)))))))
(assert (forall ((?v0 S12) (?v1 S5) (?v2 S5) (?v3 S5) (?v4 S5) (?v5 S10)) (=> (= (f25 (f26 f27 (f18 (f19 (f20 f21 f28) ?v0) (f30 (f31 f32 (f33 f34 ?v0)) (f30 (f35 f36 ?v1) (f30 (f35 f36 ?v2) (f30 (f35 f36 ?v3) ?v4)))))) (f41 f42 ?v5)) f1) (= (f3 (f4 f5 ?v3) (f9 f45 (f11 (f12 f13 f14) ?v5))) f1))))
(assert (forall ((?v0 S12) (?v1 S5) (?v2 S12) (?v3 S7) (?v4 S5) (?v5 S10) (?v6 S12) (?v7 S5) (?v8 S12) (?v9 S5)) (let ((?v_0 (f20 f21 f28)) (?v_1 (f35 f36 (f6 f7 ?v3))) (?v_2 (f41 f42 ?v5))) (=> (= (f25 (f26 f27 (f18 (f19 ?v_0 ?v0) (f30 (f31 f32 (f33 f34 ?v0)) (f30 (f35 f36 ?v1) (f30 (f35 f36 (f38 f39 ?v2)) (f30 ?v_1 ?v4)))))) ?v_2) f1) (=> (= (f25 (f26 f27 (f18 (f19 ?v_0 ?v6) (f30 (f31 f32 (f33 f34 ?v6)) (f30 (f35 f36 ?v7) (f30 (f35 f36 (f38 f39 ?v8)) (f30 ?v_1 ?v9)))))) ?v_2) f1) (=> (= (f50 (f51 f52 ?v5) f53) f1) (and (= ?v0 ?v6) (and (= ?v1 ?v7) (and (= ?v2 ?v8) (= ?v4 ?v9))))))))))
(assert (forall ((?v0 S12) (?v1 S12) (?v2 S7) (?v3 S5) (?v4 S5) (?v5 S5) (?v6 S5) (?v7 S10)) (=> (= (f25 (f26 f27 (f18 (f19 (f20 f21 ?v0) ?v1) (f30 (f31 f32 ?v2) (f30 (f35 f36 ?v3) (f30 (f35 f36 ?v4) (f30 (f35 f36 ?v5) ?v6)))))) (f41 f42 ?v7)) f1) (= (f3 (f4 f5 ?v6) (f9 f45 (f11 (f12 f13 f14) ?v7))) f1))))
(assert (forall ((?v0 S10) (?v1 S7) (?v2 S12) (?v3 S5) (?v4 S12) (?v5 S5) (?v6 S7)) (let ((?v_0 (f6 f7 ?v1)) (?v_1 (f11 (f12 f13 f14) ?v0))) (=> (= (f50 (f51 f52 ?v0) f53) f1) (=> (not (= (f3 (f4 f5 ?v_0) (f9 f10 ?v_1)) f1)) (=> (= (f25 (f26 f27 (f18 (f19 (f20 f21 f28) ?v2) (f30 (f31 f32 (f33 f34 ?v2)) (f30 (f35 f36 ?v3) (f30 (f35 f36 (f38 f39 ?v4)) (f30 (f35 f36 ?v_0) ?v5)))))) (f41 f42 ?v0)) f1) (=> (= (f3 (f4 f5 (f30 (f31 f32 ?v1) (f6 f43 ?v6))) (f9 f45 ?v_1)) f1) (exists ((?v7 S12)) (= (f25 (f26 f27 (f18 (f19 (f20 f21 ?v7) ?v4) ?v5)) (f41 f42 ?v0)) f1)))))))))
(assert (forall ((?v0 S12) (?v1 S7) (?v2 S12) (?v3 S10)) (=> (= (f3 (f4 f5 (f30 (f31 f32 (f33 f34 ?v0)) (f30 (f35 f36 (f6 f7 ?v1)) (f38 f39 ?v2)))) (f9 f45 (f11 (f12 f13 f14) ?v3))) f1) (=> (not (= (f46 (f47 f48 ?v0) f49) f1)) (=> (= (f50 (f51 f52 ?v3) f53) f1) (exists ((?v4 S5)) (let ((?v_0 (f35 f36 (f6 f7 ?v1)))) (= (f25 (f26 f27 (f18 (f19 (f20 f21 f28) ?v2) (f30 (f31 f32 (f33 f34 ?v2)) (f30 (f35 f36 ?v4) (f30 (f35 f36 (f38 f39 ?v0)) (f30 ?v_0 (f30 (f31 f32 (f33 f34 ?v0)) (f30 ?v_0 (f38 f39 ?v2))))))))) (f41 f42 ?v3)) f1))))))))
(assert (forall ((?v0 S12) (?v1 S10)) (=> (= (f46 (f47 f48 ?v0) f49) f1) (= (f3 (f4 f5 (f6 f7 (f33 f34 ?v0))) (f11 (f12 f13 f14) ?v1)) f1))))
(assert (forall ((?v0 S12) (?v1 S10)) (= (f3 (f4 f5 (f6 f7 (f33 f34 ?v0))) (f11 (f12 f13 ?v0) ?v1)) f1)))
(assert (forall ((?v0 S5) (?v1 S3) (?v2 S7)) (let ((?v_0 (f9 f54 ?v1))) (=> (= (f3 (f4 f5 ?v0) ?v_0) f1) (=> (= (f3 (f4 f5 (f6 f7 ?v2)) ?v1) f1) (= (f3 (f4 f5 (f30 (f31 f32 ?v2) ?v0)) ?v_0) f1))))))
(assert (forall ((?v0 S12) (?v1 S5) (?v2 S10)) (let ((?v_0 (f9 f10 (f11 (f12 f13 f14) ?v2)))) (=> (= (f3 (f4 f5 (f30 (f31 f32 (f33 f34 ?v0)) ?v1)) ?v_0) f1) (=> (= (f46 (f47 f48 ?v0) f49) f1) (= (f3 (f4 f5 ?v1) ?v_0) f1))))))
(assert (= (f46 (f47 f48 f14) f49) f1))
(assert (forall ((?v0 S5) (?v1 S12) (?v2 S12) (?v3 S5) (?v4 S10)) (let ((?v_1 (f12 f13 f14)) (?v_0 (f4 f5 ?v0))) (=> (not (= (f3 ?v_0 (f9 f10 (f11 ?v_1 (f15 (f16 f17 (f18 (f19 (f20 f21 ?v1) ?v2) ?v3)) ?v4)))) f1)) (not (= (f3 ?v_0 (f9 f10 (f11 ?v_1 ?v4))) f1))))))
(assert (forall ((?v0 S12) (?v1 S12) (?v2 S5) (?v3 S10)) (=> (= (f25 (f26 f27 (f18 (f19 (f20 f21 ?v0) ?v1) ?v2)) (f41 f42 ?v3)) f1) (=> (=> (= (f3 (f4 f5 ?v2) (f9 f45 (f11 (f12 f13 f14) ?v3))) f1) false) false))))
(assert (forall ((?v0 S12) (?v1 S3)) (= (f3 (f4 f5 (f38 f39 ?v0)) (f9 f54 ?v1)) f1)))
(assert (forall ((?v0 S12) (?v1 S12) (?v2 S5) (?v3 S10)) (=> (= (f25 (f26 f27 (f18 (f19 (f20 f21 ?v0) ?v1) ?v2)) (f41 f42 ?v3)) f1) (= (f3 (f4 f5 ?v2) (f9 f10 (f11 (f12 f13 f14) ?v3))) f1))))
(assert (forall ((?v0 S5) (?v1 S3) (?v2 S5)) (let ((?v_0 (f9 f54 ?v1))) (=> (= (f3 (f4 f5 ?v0) ?v_0) f1) (=> (= (f3 (f4 f5 ?v2) ?v_0) f1) (= (f3 (f4 f5 (f30 (f35 f36 ?v0) ?v2)) ?v_0) f1))))))
(assert (forall ((?v0 S5) (?v1 S3)) (let ((?v_0 (f4 f5 ?v0))) (=> (= (f3 ?v_0 ?v1) f1) (= (f3 ?v_0 (f9 f10 ?v1)) f1)))))
(assert (forall ((?v0 S5) (?v1 S3)) (let ((?v_0 (f4 f5 ?v0))) (=> (= (f3 ?v_0 ?v1) f1) (= (f3 ?v_0 (f9 f45 ?v1)) f1)))))
(assert (forall ((?v0 S5) (?v1 S3)) (let ((?v_0 (f4 f5 ?v0))) (=> (= (f3 ?v_0 ?v1) f1) (= (f3 ?v_0 (f9 f54 ?v1)) f1)))))
(assert (forall ((?v0 S5) (?v1 S5) (?v2 S3)) (let ((?v_0 (f9 f10 ?v2))) (=> (= (f3 (f4 f5 (f30 (f35 f36 ?v0) ?v1)) ?v_0) f1) (=> (=> (= (f3 (f4 f5 ?v0) ?v_0) f1) (=> (= (f3 (f4 f5 ?v1) ?v_0) f1) false)) false)))))
(assert (forall ((?v0 S5) (?v1 S5) (?v2 S3)) (let ((?v_0 (f9 f45 ?v2))) (=> (= (f3 (f4 f5 (f30 (f35 f36 ?v0) ?v1)) ?v_0) f1) (=> (=> (= (f3 (f4 f5 ?v0) ?v_0) f1) (=> (= (f3 (f4 f5 ?v1) ?v_0) f1) false)) false)))))
(assert (forall ((?v0 S5) (?v1 S3)) (let ((?v_0 (f4 f5 ?v0)) (?v_1 (f9 f10 ?v1))) (=> (= (f3 ?v_0 (f9 f10 ?v_1)) f1) (= (f3 ?v_0 ?v_1) f1)))))
(assert (forall ((?v0 S3)) (let ((?v_0 (f9 f10 ?v0))) (= (f9 f10 ?v_0) ?v_0))))
(assert (forall ((?v0 S5) (?v1 S5) (?v2 S5) (?v3 S5)) (= (= (f30 (f35 f36 ?v0) ?v1) (f30 (f35 f36 ?v2) ?v3)) (and (= ?v0 ?v2) (= ?v1 ?v3)))))
(assert (forall ((?v0 S7) (?v1 S7)) (= (= (f6 f7 ?v0) (f6 f7 ?v1)) (= ?v0 ?v1))))
(assert (forall ((?v0 S5) (?v1 S3)) (let ((?v_0 (f4 f5 ?v0)) (?v_1 (f9 f45 ?v1))) (=> (= (f3 ?v_0 (f9 f45 ?v_1)) f1) (= (f3 ?v_0 ?v_1) f1)))))
(assert (forall ((?v0 S3)) (let ((?v_0 (f9 f45 ?v0))) (= (f9 f45 ?v_0) ?v_0))))
(assert (forall ((?v0 S7) (?v1 S5) (?v2 S7) (?v3 S5)) (= (= (f30 (f31 f32 ?v0) ?v1) (f30 (f31 f32 ?v2) ?v3)) (and (= ?v0 ?v2) (= ?v1 ?v3)))))
(assert (forall ((?v0 S5) (?v1 S3)) (let ((?v_0 (f4 f5 ?v0)) (?v_1 (f9 f54 ?v1))) (=> (= (f3 ?v_0 (f9 f54 ?v_1)) f1) (= (f3 ?v_0 ?v_1) f1)))))
(assert (forall ((?v0 S3)) (let ((?v_0 (f9 f54 ?v0))) (= (f9 f54 ?v_0) ?v_0))))
(assert (forall ((?v0 S7) (?v1 S7)) (= (= (f6 f43 ?v0) (f6 f43 ?v1)) (= ?v0 ?v1))))
(assert (forall ((?v0 S12) (?v1 S12)) (= (= (f38 f39 ?v0) (f38 f39 ?v1)) (= ?v0 ?v1))))
(assert (forall ((?v0 S12) (?v1 S12) (?v2 S5) (?v3 S12) (?v4 S12) (?v5 S5)) (= (= (f18 (f19 (f20 f21 ?v0) ?v1) ?v2) (f18 (f19 (f20 f21 ?v3) ?v4) ?v5)) (and (= ?v0 ?v3) (and (= ?v1 ?v4) (= ?v2 ?v5))))))
(assert (forall ((?v0 S12) (?v1 S12)) (= (= (f33 f34 ?v0) (f33 f34 ?v1)) (= ?v0 ?v1))))
(assert (forall ((?v0 S5) (?v1 S5) (?v2 S3)) (let ((?v_0 (f9 f10 ?v2))) (=> (= (f3 (f4 f5 (f30 (f35 f36 ?v0) ?v1)) ?v_0) f1) (= (f3 (f4 f5 ?v1) ?v_0) f1)))))
(assert (forall ((?v0 S5) (?v1 S5) (?v2 S3)) (let ((?v_0 (f9 f10 ?v2))) (=> (= (f3 (f4 f5 (f30 (f35 f36 ?v0) ?v1)) ?v_0) f1) (= (f3 (f4 f5 ?v0) ?v_0) f1)))))
(assert (forall ((?v0 S5) (?v1 S3)) (let ((?v_0 (f4 f5 ?v0))) (=> (= (f3 ?v_0 (f9 f10 ?v1)) f1) (= (f3 ?v_0 (f9 f45 ?v1)) f1)))))
(assert (forall ((?v0 S5) (?v1 S3)) (let ((?v_0 (f4 f5 ?v0))) (=> (not (= (f3 ?v_0 (f9 f45 ?v1)) f1)) (not (= (f3 ?v_0 (f9 f10 ?v1)) f1))))))
(assert (forall ((?v0 S5) (?v1 S3)) (let ((?v_0 (f4 f5 ?v0))) (let ((?v_1 (= (f3 ?v_0 (f9 f45 ?v1)) f1))) (= (or (= (f3 ?v_0 (f9 f10 ?v1)) f1) ?v_1) ?v_1)))))
(assert (forall ((?v0 S5) (?v1 S3)) (let ((?v_0 (f4 f5 ?v0))) (let ((?v_1 (= (f3 ?v_0 (f9 f10 ?v1)) f1))) (= (and ?v_1 (= (f3 ?v_0 (f9 f45 ?v1)) f1)) ?v_1)))))
(assert (forall ((?v0 S3)) (= (f9 f45 (f9 f10 ?v0)) (f9 f45 ?v0))))
(assert (forall ((?v0 S3)) (let ((?v_0 (f9 f45 ?v0))) (= (f9 f10 ?v_0) ?v_0))))
(assert (forall ((?v0 S5) (?v1 S5) (?v2 S7)) (not (= (f30 (f35 f36 ?v0) ?v1) (f6 f7 ?v2)))))
(assert (forall ((?v0 S7) (?v1 S5) (?v2 S5)) (not (= (f6 f7 ?v0) (f30 (f35 f36 ?v1) ?v2)))))
(assert (forall ((?v0 S5) (?v1 S5) (?v2 S3)) (let ((?v_0 (f9 f45 ?v2))) (=> (= (f3 (f4 f5 (f30 (f35 f36 ?v0) ?v1)) ?v_0) f1) (= (f3 (f4 f5 ?v1) ?v_0) f1)))))
(assert (forall ((?v0 S5) (?v1 S5) (?v2 S3)) (let ((?v_0 (f9 f45 ?v2))) (=> (= (f3 (f4 f5 (f30 (f35 f36 ?v0) ?v1)) ?v_0) f1) (= (f3 (f4 f5 ?v0) ?v_0) f1)))))
(assert (forall ((?v0 S5) (?v1 S5) (?v2 S7) (?v3 S5)) (not (= (f30 (f35 f36 ?v0) ?v1) (f30 (f31 f32 ?v2) ?v3)))))
(assert (forall ((?v0 S7) (?v1 S5) (?v2 S5) (?v3 S5)) (not (= (f30 (f31 f32 ?v0) ?v1) (f30 (f35 f36 ?v2) ?v3)))))
(assert (forall ((?v0 S7) (?v1 S5) (?v2 S7)) (not (= (f30 (f31 f32 ?v0) ?v1) (f6 f7 ?v2)))))
(assert (forall ((?v0 S7) (?v1 S7) (?v2 S5)) (not (= (f6 f7 ?v0) (f30 (f31 f32 ?v1) ?v2)))))
(assert (forall ((?v0 S7) (?v1 S5) (?v2 S3)) (let ((?v_0 (f9 f45 ?v2))) (=> (= (f3 (f4 f5 (f30 (f31 f32 ?v0) ?v1)) ?v_0) f1) (=> (=> (= (f3 (f4 f5 ?v1) ?v_0) f1) false) false)))))
(assert (forall ((?v0 S7) (?v1 S5) (?v2 S3)) (let ((?v_0 (f9 f45 ?v2))) (=> (= (f3 (f4 f5 (f30 (f31 f32 ?v0) ?v1)) ?v_0) f1) (= (f3 (f4 f5 ?v1) ?v_0) f1)))))
(assert (forall ((?v0 S5) (?v1 S5) (?v2 S3)) (let ((?v_0 (f4 f5 (f30 (f35 f36 ?v0) ?v1))) (?v_1 (f9 f54 ?v2))) (= (= (f3 ?v_0 ?v_1) f1) (or (= (f3 ?v_0 ?v2) f1) (and (= (f3 (f4 f5 ?v0) ?v_1) f1) (= (f3 (f4 f5 ?v1) ?v_1) f1)))))))
(assert (forall ((?v0 S7) (?v1 S3)) (let ((?v_0 (f4 f5 (f6 f7 ?v0)))) (= (= (f3 ?v_0 (f9 f54 ?v1)) f1) (= (f3 ?v_0 ?v1) f1)))))
(assert (forall ((?v0 S5) (?v1 S5) (?v2 S7)) (not (= (f30 (f35 f36 ?v0) ?v1) (f6 f43 ?v2)))))
(assert (forall ((?v0 S7) (?v1 S5) (?v2 S5)) (not (= (f6 f43 ?v0) (f30 (f35 f36 ?v1) ?v2)))))
(assert (forall ((?v0 S5) (?v1 S5) (?v2 S12)) (not (= (f30 (f35 f36 ?v0) ?v1) (f38 f39 ?v2)))))
(assert (forall ((?v0 S12) (?v1 S5) (?v2 S5)) (not (= (f38 f39 ?v0) (f30 (f35 f36 ?v1) ?v2)))))
(assert (forall ((?v0 S7) (?v1 S7)) (not (= (f6 f43 ?v0) (f6 f7 ?v1)))))
(assert (forall ((?v0 S7) (?v1 S7)) (not (= (f6 f7 ?v0) (f6 f43 ?v1)))))
(assert (forall ((?v0 S12) (?v1 S7)) (not (= (f38 f39 ?v0) (f6 f7 ?v1)))))
(assert (forall ((?v0 S7) (?v1 S12)) (not (= (f6 f7 ?v0) (f38 f39 ?v1)))))
(assert (forall ((?v0 S7) (?v1 S5) (?v2 S7)) (not (= (f30 (f31 f32 ?v0) ?v1) (f6 f43 ?v2)))))
(assert (forall ((?v0 S7) (?v1 S7) (?v2 S5)) (not (= (f6 f43 ?v0) (f30 (f31 f32 ?v1) ?v2)))))
(assert (forall ((?v0 S7) (?v1 S5) (?v2 S12)) (not (= (f30 (f31 f32 ?v0) ?v1) (f38 f39 ?v2)))))
(assert (forall ((?v0 S12) (?v1 S7) (?v2 S5)) (not (= (f38 f39 ?v0) (f30 (f31 f32 ?v1) ?v2)))))
(assert (forall ((?v0 S7) (?v1 S3)) (let ((?v_0 (f4 f5 (f6 f43 ?v0)))) (= (= (f3 ?v_0 (f9 f54 ?v1)) f1) (= (f3 ?v_0 ?v1) f1)))))
(assert (forall ((?v0 S7) (?v1 S3)) (let ((?v_0 (f4 f5 (f6 f43 ?v0)))) (= (= (f3 ?v_0 (f9 f54 ?v1)) f1) (= (f3 ?v_0 ?v1) f1)))))
(assert (forall ((?v0 S12) (?v1 S3)) (= (f3 (f4 f5 (f38 f39 ?v0)) (f9 f54 ?v1)) f1)))
(assert (forall ((?v0 S7) (?v1 S12)) (not (= (f6 f43 ?v0) (f38 f39 ?v1)))))
(assert (forall ((?v0 S7) (?v1 S34)) (= (= (f55 (f56 f57 ?v0) ?v1) f1) (= (f58 ?v1 ?v0) f1))))
(assert (forall ((?v0 S10) (?v1 S32)) (= (= (f50 (f51 f52 ?v0) ?v1) f1) (= (f59 ?v1 ?v0) f1))))
(assert (forall ((?v0 S12) (?v1 S29)) (= (= (f46 (f47 f48 ?v0) ?v1) f1) (= (f60 ?v1 ?v0) f1))))
(assert (forall ((?v0 S15) (?v1 S20)) (= (= (f25 (f26 f27 ?v0) ?v1) f1) (= (f61 ?v1 ?v0) f1))))
(assert (forall ((?v0 S5) (?v1 S3)) (= (= (f3 (f4 f5 ?v0) ?v1) f1) (= (f62 ?v1 ?v0) f1))))
(assert (forall ((?v0 S12) (?v1 S7)) (not (= (f38 f39 ?v0) (f6 f43 ?v1)))))
(assert (not (= f28 f14)))
(assert (not (= f14 f28)))
(assert (not (= (f46 (f47 f48 f28) f49) f1)))
(assert (forall ((?v0 S5) (?v1 S5) (?v2 S3)) (let ((?v_0 (f9 f54 (f9 f10 ?v2)))) (= (= (f3 (f4 f5 (f30 (f35 f36 ?v0) ?v1)) ?v_0) f1) (and (= (f3 (f4 f5 ?v0) ?v_0) f1) (= (f3 (f4 f5 ?v1) ?v_0) f1))))))
(assert (forall ((?v0 S7) (?v1 S3) (?v2 S5)) (let ((?v_0 (f4 f5 (f30 (f31 f32 ?v0) ?v2)))) (=> (not (= (f3 (f4 f5 (f6 f7 ?v0)) ?v1) f1)) (= (= (f3 ?v_0 (f9 f54 ?v1)) f1) (= (f3 ?v_0 ?v1) f1))))))
(assert (forall ((?v0 S7) (?v1 S5) (?v2 S3)) (let ((?v_0 (f4 f5 (f30 (f31 f32 ?v0) ?v1))) (?v_1 (f9 f54 ?v2))) (= (= (f3 ?v_0 ?v_1) f1) (or (= (f3 ?v_0 ?v2) f1) (and (= (f3 (f4 f5 ?v1) ?v_1) f1) (= (f3 (f4 f5 (f6 f7 ?v0)) ?v2) f1)))))))
(assert (forall ((?v0 S5) (?v1 S10) (?v2 S1)) (let ((?v_0 (=> (not (= (f3 (f4 f5 ?v0) (f9 f10 (f11 (f12 f13 f14) ?v1))) f1)) (= ?v2 f1)))) (=> ?v_0 ?v_0))))
(assert (forall ((?v0 S12) (?v1 S12) (?v2 S5) (?v3 S10)) (=> (= (f25 (f26 f27 (f18 (f19 (f20 f21 ?v0) ?v1) ?v2)) (f41 f42 ?v3)) f1) (= (f3 (f4 f5 ?v2) (f11 (f12 f13 ?v0) ?v3)) f1))))
(assert (forall ((?v0 S12) (?v1 S5) (?v2 S3)) (let ((?v_0 (f33 f34 ?v0)) (?v_1 (f9 f10 ?v2))) (=> (= (f3 (f4 f5 (f30 (f31 f32 ?v_0) ?v1)) ?v_1) f1) (=> (= (f3 (f4 f5 (f6 f7 ?v_0)) ?v_1) f1) (= (f3 (f4 f5 ?v1) ?v_1) f1))))))
(assert (forall ((?v0 S5) (?v1 S10) (?v2 S1)) (let ((?v_0 (=> (not (= (f3 (f4 f5 ?v0) (f9 f54 (f9 f10 (f11 (f12 f13 f14) ?v1)))) f1)) (= ?v2 f1)))) (=> ?v_0 ?v_0))))
(assert (forall ((?v0 S12) (?v1 S12) (?v2 S5) (?v3 S10)) (=> (= (f25 (f26 f27 (f18 (f19 (f20 f21 ?v0) ?v1) ?v2)) (f41 f42 ?v3)) f1) (= (f3 (f4 f5 ?v2) (f11 (f12 f13 f14) ?v3)) f1))))
(assert (forall ((?v0 S10) (?v1 S12) (?v2 S12) (?v3 S7) (?v4 S12) (?v5 S7) (?v6 S5)) (let ((?v_1 (f6 f43 ?v3)) (?v_0 (f35 f36 (f38 f39 ?v4))) (?v_2 (f41 f42 ?v0)) (?v_3 (f20 f21 ?v1))) (=> (= (f59 f63 ?v0) f1) (=> (not (= ?v1 f28)) (=> (= (f25 (f26 f27 (f18 (f19 (f20 f21 ?v2) ?v1) (f30 (f31 f32 (f33 f34 ?v1)) (f30 (f35 f36 ?v_1) (f30 ?v_0 (f30 (f35 f36 (f6 f7 ?v5)) ?v6)))))) ?v_2) f1) (=> (= (f25 (f26 f27 (f18 (f19 ?v_3 f28) (f30 (f35 f36 (f38 f39 ?v1)) (f30 ?v_0 ?v_1)))) ?v_2) f1) (= (f59 f63 (f15 (f16 f17 (f18 (f19 ?v_3 ?v4) ?v6)) ?v0)) f1))))))))
(assert (forall ((?v0 S10) (?v1 S12) (?v2 S12) (?v3 S7) (?v4 S7) (?v5 S7) (?v6 S5)) (let ((?v_2 (f6 f43 ?v4)) (?v_0 (f41 f42 ?v0)) (?v_1 (f35 f36 (f6 f43 ?v5))) (?v_3 (f6 f7 ?v3))) (=> (= (f50 (f51 f52 ?v0) f53) f1) (=> (= (f25 (f26 f27 (f18 (f19 (f20 f21 ?v1) ?v2) (f30 (f31 f32 ?v3) ?v_2))) ?v_0) f1) (=> (= (f25 (f26 f27 (f18 (f19 (f20 f21 f28) ?v2) (f30 (f31 f32 (f33 f34 ?v2)) (f30 ?v_1 (f30 (f35 f36 (f38 f39 ?v1)) (f30 (f35 f36 ?v_3) ?v6)))))) ?v_0) f1) (= (f50 (f51 f52 (f15 (f16 f17 (f18 (f19 f64 f14) (f30 ?v_1 (f30 (f35 f36 ?v_2) ?v_3)))) ?v0)) f53) f1)))))))
(assert (forall ((?v0 S10) (?v1 S7) (?v2 S12) (?v3 S12) (?v4 S7) (?v5 S12) (?v6 S7) (?v7 S12) (?v8 S5)) (let ((?v_1 (f31 f32 ?v1)) (?v_2 (f6 f43 ?v4)) (?v_0 (f41 f42 ?v0))) (=> (= (f50 (f51 f52 ?v0) f53) f1) (=> (= (f55 (f56 f57 ?v1) f65) f1) (=> (= (f25 (f26 f27 (f18 (f19 (f20 f21 ?v2) ?v3) (f30 ?v_1 ?v_2))) ?v_0) f1) (=> (= (f25 (f26 f27 (f18 (f19 (f20 f21 ?v5) ?v3) (f30 (f31 f32 (f33 f34 ?v3)) (f30 (f35 f36 (f6 f43 ?v6)) (f30 (f35 f36 (f38 f39 ?v7)) (f30 (f35 f36 (f6 f7 ?v1)) ?v8)))))) ?v_0) f1) (= (f50 (f51 f52 (f15 (f16 f17 (f18 (f19 (f20 f21 ?v3) ?v7) (f30 ?v_1 (f30 (f35 f36 ?v_2) ?v_2)))) ?v0)) f53) f1))))))))
(assert (forall ((?v0 S12) (?v1 S5) (?v2 S12) (?v3 S7) (?v4 S10)) (let ((?v_1 (f6 f7 ?v3))) (let ((?v_0 (f35 f36 ?v_1))) (=> (= (f25 (f26 f27 (f18 (f19 (f20 f21 f28) ?v0) (f30 (f31 f32 (f33 f34 ?v0)) (f30 (f35 f36 ?v1) (f30 (f35 f36 (f38 f39 ?v2)) (f30 ?v_0 (f30 (f31 f32 (f33 f34 ?v2)) (f30 ?v_0 (f38 f39 ?v0))))))))) (f41 f42 ?v4)) f1) (=> (not (= (f46 (f47 f48 ?v0) f49) f1)) (=> (not (= (f46 (f47 f48 ?v2) f49) f1)) (=> (= (f50 (f51 f52 ?v4) f53) f1) (=> (forall ((?v5 S5)) (not (= (f25 (f26 f27 (f18 (f19 f64 f14) (f30 (f35 f36 ?v1) (f30 (f35 f36 ?v5) ?v_1)))) (f41 f42 ?v4)) f1))) (not (= (f3 (f4 f5 ?v_1) (f9 f10 (f11 (f12 f13 f14) ?v4))) f1)))))))))))
(assert (forall ((?v0 S7) (?v1 S7) (?v2 S10) (?v3 S12) (?v4 S5) (?v5 S12) (?v6 S5)) (let ((?v_1 (f30 (f31 f32 ?v0) (f6 f43 ?v1))) (?v_0 (f9 f45 (f11 (f12 f13 f14) ?v2)))) (=> (= (f3 (f4 f5 ?v_1) ?v_0) f1) (=> (= (f3 (f4 f5 (f30 (f31 f32 (f33 f34 ?v3)) (f30 (f35 f36 ?v4) (f30 (f35 f36 (f38 f39 ?v5)) (f30 (f35 f36 (f6 f7 ?v0)) ?v6))))) ?v_0) f1) (=> (forall ((?v7 S5)) (not (= (f25 (f26 f27 (f18 (f19 f64 f14) (f30 (f35 f36 ?v4) (f30 (f35 f36 ?v7) (f6 f7 ?v0))))) (f41 f42 ?v2)) f1))) (=> (not (= (f46 (f47 f48 ?v3) f49) f1)) (=> (not (= (f46 (f47 f48 ?v5) f49) f1)) (=> (= (f50 (f51 f52 ?v2) f53) f1) (= (f25 (f26 f27 (f18 (f19 (f20 f21 ?v5) ?v3) ?v_1)) (f41 f42 ?v2)) f1))))))))))
(assert (forall ((?v0 S12) (?v1 S7) (?v2 S5) (?v3 S12) (?v4 S7) (?v5 S5) (?v6 S10)) (let ((?v_0 (f6 f7 ?v4))) (=> (= (f25 (f26 f27 (f18 (f19 (f20 f21 f28) ?v0) (f30 (f31 f32 ?v1) (f30 (f35 f36 ?v2) (f30 (f35 f36 (f38 f39 ?v3)) (f30 (f35 f36 ?v_0) ?v5)))))) (f41 f42 ?v6)) f1) (=> (forall ((?v7 S5)) (not (= (f25 (f26 f27 (f18 (f19 f64 f14) (f30 (f35 f36 ?v2) (f30 (f35 f36 ?v7) ?v_0)))) (f41 f42 ?v6)) f1))) (=> (not (= (f46 (f47 f48 ?v0) f49) f1)) (=> (not (= (f46 (f47 f48 ?v3) f49) f1)) (=> (= (f50 (f51 f52 ?v6) f53) f1) (not (= (f3 (f4 f5 ?v_0) (f9 f10 (f11 (f12 f13 f14) ?v6))) f1))))))))))
(assert (forall ((?v0 S10) (?v1 S5) (?v2 S12)) (=> (= (f59 f63 ?v0) f1) (=> (= (f3 (f4 f5 ?v1) (f9 f54 (f9 f10 (f11 (f12 f13 f14) ?v0)))) f1) (= (f59 f63 (f15 (f16 f17 (f18 (f19 (f20 f21 f14) ?v2) ?v1)) ?v0)) f1)))))
(assert (forall ((?v0 S10) (?v1 S7) (?v2 S12) (?v3 S12)) (let ((?v_0 (f6 f43 ?v1))) (=> (= (f50 (f51 f52 ?v0) f53) f1) (=> (not (= (f3 (f4 f5 ?v_0) (f11 f66 ?v0)) f1)) (= (f50 (f51 f52 (f15 (f16 f17 (f18 (f19 (f20 f21 ?v2) f28) (f30 (f35 f36 (f38 f39 ?v2)) (f30 (f35 f36 (f38 f39 ?v3)) ?v_0)))) ?v0)) f53) f1))))))
(assert (forall ((?v0 S10) (?v1 S12) (?v2 S12) (?v3 S7) (?v4 S7) (?v5 S7) (?v6 S5)) (let ((?v_2 (f6 f43 ?v4)) (?v_0 (f41 f42 ?v0)) (?v_1 (f35 f36 (f6 f43 ?v5))) (?v_3 (f6 f7 ?v3))) (=> (= (f59 f63 ?v0) f1) (=> (= (f25 (f26 f27 (f18 (f19 (f20 f21 ?v1) ?v2) (f30 (f31 f32 ?v3) ?v_2))) ?v_0) f1) (=> (= (f25 (f26 f27 (f18 (f19 (f20 f21 f28) ?v2) (f30 (f31 f32 (f33 f34 ?v2)) (f30 ?v_1 (f30 (f35 f36 (f38 f39 ?v1)) (f30 (f35 f36 ?v_3) ?v6)))))) ?v_0) f1) (= (f59 f63 (f15 (f16 f17 (f18 (f19 f64 f14) (f30 ?v_1 (f30 (f35 f36 ?v_2) ?v_3)))) ?v0)) f1)))))))
(assert (forall ((?v0 S10) (?v1 S7) (?v2 S12) (?v3 S12) (?v4 S12) (?v5 S7)) (let ((?v_2 (f6 f7 ?v1)) (?v_4 (f38 f39 ?v3)) (?v_1 (f35 f36 (f38 f39 ?v4))) (?v_0 (f6 f43 ?v5))) (let ((?v_3 (f35 f36 ?v_2))) (=> (= (f50 (f51 f52 ?v0) f53) f1) (=> (not (= (f3 (f4 f5 ?v_2) (f11 f66 ?v0)) f1)) (=> (= (f55 (f56 f57 ?v1) f65) f1) (=> (= (f25 (f26 f27 (f18 (f19 (f20 f21 ?v2) f28) (f30 (f35 f36 ?v_4) (f30 ?v_1 ?v_0)))) (f41 f42 ?v0)) f1) (= (f50 (f51 f52 (f15 (f16 f17 (f18 (f19 (f20 f21 f28) ?v3) (f30 (f31 f32 (f33 f34 ?v3)) (f30 (f35 f36 ?v_0) (f30 ?v_1 (f30 ?v_3 (f30 (f31 f32 (f33 f34 ?v4)) (f30 ?v_3 ?v_4)))))))) ?v0)) f53) f1)))))))))
(assert (forall ((?v0 S5) (?v1 S5) (?v2 S10)) (let ((?v_0 (f11 f66 ?v2))) (=> (= (f3 (f4 f5 (f30 (f35 f36 ?v0) ?v1)) ?v_0) f1) (=> (=> (= (f3 (f4 f5 ?v0) ?v_0) f1) (=> (= (f3 (f4 f5 ?v1) ?v_0) f1) false)) false)))))
(assert (forall ((?v0 S12)) (= (f55 (f56 f57 (f33 f34 ?v0)) f65) f1)))
(assert (forall ((?v0 S12) (?v1 S10)) (= (f3 (f4 f5 (f6 f7 (f33 f34 ?v0))) (f11 f66 ?v1)) f1)))
(assert (forall ((?v0 S5) (?v1 S10)) (let ((?v_0 (f4 f5 ?v0))) (=> (= (f3 ?v_0 (f9 f45 (f11 (f12 f13 f14) ?v1))) f1) (= (f3 ?v_0 (f11 f66 ?v1)) f1)))))
(assert (forall ((?v0 S12) (?v1 S5) (?v2 S12) (?v3 S5)) (= (= (f18 (f19 f64 ?v0) ?v1) (f18 (f19 f64 ?v2) ?v3)) (and (= ?v0 ?v2) (= ?v1 ?v3)))))
(assert (forall ((?v0 S7) (?v1 S7)) (=> (not (= (= (f55 (f56 f57 ?v0) f65) f1) (= (f55 (f56 f57 ?v1) f65) f1))) (not (= ?v0 ?v1)))))
(assert (forall ((?v0 S12) (?v1 S5) (?v2 S10)) (=> (= (f25 (f26 f27 (f18 (f19 f64 ?v0) ?v1)) (f41 f42 ?v2)) f1) (= (f3 (f4 f5 ?v1) (f11 f66 ?v2)) f1))))
(assert (forall ((?v0 S5) (?v1 S5) (?v2 S10)) (let ((?v_0 (f11 f66 ?v2))) (=> (= (f3 (f4 f5 (f30 (f35 f36 ?v0) ?v1)) ?v_0) f1) (and (= (f3 (f4 f5 ?v0) ?v_0) f1) (= (f3 (f4 f5 ?v1) ?v_0) f1))))))
(assert (forall ((?v0 S12) (?v1 S5) (?v2 S12) (?v3 S12) (?v4 S5)) (not (= (f18 (f19 f64 ?v0) ?v1) (f18 (f19 (f20 f21 ?v2) ?v3) ?v4)))))
(assert (forall ((?v0 S12) (?v1 S12) (?v2 S5) (?v3 S12) (?v4 S5)) (not (= (f18 (f19 (f20 f21 ?v0) ?v1) ?v2) (f18 (f19 f64 ?v3) ?v4)))))
(assert (forall ((?v0 S10)) (= (= (f59 f63 ?v0) f1) (= (f50 (f51 f52 ?v0) f53) f1))))
(assert (forall ((?v0 S7) (?v1 S10) (?v2 S12)) (=> (not (= (f3 (f4 f5 (f6 f7 ?v0)) (f11 f66 ?v1)) f1)) (not (= ?v0 (f33 f34 ?v2))))))
(assert (forall ((?v0 S7) (?v1 S10) (?v2 S12)) (=> (not (= (f3 (f4 f5 (f6 f7 ?v0)) (f11 f66 ?v1)) f1)) (not (= (f33 f34 ?v2) ?v0)))))
(assert (forall ((?v0 S12) (?v1 S12) (?v2 S5) (?v3 S10)) (=> (= (f25 (f26 f27 (f18 (f19 (f20 f21 ?v0) ?v1) ?v2)) (f41 f42 ?v3)) f1) (= (f3 (f4 f5 ?v2) (f11 f66 ?v3)) f1))))
(assert (forall ((?v0 S12) (?v1 S5) (?v2 S10)) (=> (= (f25 (f26 f27 (f18 (f19 f64 ?v0) ?v1)) (f41 f42 ?v2)) f1) (= (f3 (f4 f5 ?v1) (f11 (f12 f13 ?v0) ?v2)) f1))))
(assert (forall ((?v0 S10) (?v1 S7) (?v2 S12) (?v3 S12)) (let ((?v_0 (f6 f43 ?v1))) (=> (= (f59 f63 ?v0) f1) (=> (not (= (f3 (f4 f5 ?v_0) (f11 f66 ?v0)) f1)) (= (f59 f63 (f15 (f16 f17 (f18 (f19 (f20 f21 ?v2) f28) (f30 (f35 f36 (f38 f39 ?v2)) (f30 (f35 f36 (f38 f39 ?v3)) ?v_0)))) ?v0)) f1))))))
(assert (forall ((?v0 S10) (?v1 S7) (?v2 S7) (?v3 S12) (?v4 S12) (?v5 S12)) (let ((?v_0 (f6 f43 ?v1))) (=> (= (f59 f63 ?v0) f1) (=> (not (= (f3 (f4 f5 ?v_0) (f11 f66 ?v0)) f1)) (=> (= (f55 (f56 f57 ?v2) f65) f1) (=> (= (f25 (f26 f27 (f18 (f19 (f20 f21 ?v3) ?v4) (f30 (f31 f32 (f33 f34 ?v4)) (f30 (f35 f36 (f6 f7 ?v2)) (f38 f39 ?v5))))) (f41 f42 ?v0)) f1) (= (f59 f63 (f15 (f16 f17 (f18 (f19 (f20 f21 ?v4) ?v5) (f30 (f31 f32 ?v2) ?v_0))) ?v0)) f1))))))))
(assert (forall ((?v0 S10) (?v1 S7) (?v2 S12) (?v3 S12) (?v4 S12) (?v5 S7)) (let ((?v_2 (f6 f7 ?v1)) (?v_4 (f38 f39 ?v3)) (?v_1 (f35 f36 (f38 f39 ?v4))) (?v_0 (f6 f43 ?v5))) (let ((?v_3 (f35 f36 ?v_2))) (=> (= (f59 f63 ?v0) f1) (=> (not (= (f3 (f4 f5 ?v_2) (f11 f66 ?v0)) f1)) (=> (= (f55 (f56 f57 ?v1) f65) f1) (=> (= (f25 (f26 f27 (f18 (f19 (f20 f21 ?v2) f28) (f30 (f35 f36 ?v_4) (f30 ?v_1 ?v_0)))) (f41 f42 ?v0)) f1) (= (f59 f63 (f15 (f16 f17 (f18 (f19 (f20 f21 f28) ?v3) (f30 (f31 f32 (f33 f34 ?v3)) (f30 (f35 f36 ?v_0) (f30 ?v_1 (f30 ?v_3 (f30 (f31 f32 (f33 f34 ?v4)) (f30 ?v_3 ?v_4)))))))) ?v0)) f1)))))))))
(assert (forall ((?v0 S7) (?v1 S5) (?v2 S3)) (let ((?v_0 (f9 f10 ?v2))) (=> (= (f3 (f4 f5 (f30 (f31 f32 ?v0) ?v1)) ?v_0) f1) (=> (= (f55 (f56 f57 ?v0) f65) f1) (=> (= (f3 (f4 f5 (f6 f7 ?v0)) ?v_0) f1) (= (f3 (f4 f5 ?v1) ?v_0) f1)))))))
(assert (forall ((?v0 S5) (?v1 S12) (?v2 S5) (?v3 S10)) (let ((?v_1 (f12 f13 f14)) (?v_0 (f4 f5 ?v0))) (=> (not (= (f3 ?v_0 (f9 f10 (f11 ?v_1 (f15 (f16 f17 (f18 (f19 f64 ?v1) ?v2)) ?v3)))) f1)) (not (= (f3 ?v_0 (f9 f10 (f11 ?v_1 ?v3))) f1))))))
(assert (forall ((?v0 S12) (?v1 S5) (?v2 S10)) (=> (= (f25 (f26 f27 (f18 (f19 f64 ?v0) ?v1)) (f41 f42 ?v2)) f1) (=> (= (f46 (f47 f48 ?v0) f49) f1) (= (f3 (f4 f5 ?v1) (f11 (f12 f13 f14) ?v2)) f1)))))
(assert (forall ((?v0 S10) (?v1 S7) (?v2 S7) (?v3 S12) (?v4 S12) (?v5 S12)) (let ((?v_0 (f6 f43 ?v1))) (=> (= (f50 (f51 f52 ?v0) f53) f1) (=> (not (= (f3 (f4 f5 ?v_0) (f11 f66 ?v0)) f1)) (=> (= (f55 (f56 f57 ?v2) f65) f1) (=> (= (f25 (f26 f27 (f18 (f19 (f20 f21 ?v3) ?v4) (f30 (f31 f32 (f33 f34 ?v4)) (f30 (f35 f36 (f6 f7 ?v2)) (f38 f39 ?v5))))) (f41 f42 ?v0)) f1) (= (f50 (f51 f52 (f15 (f16 f17 (f18 (f19 (f20 f21 ?v4) ?v5) (f30 (f31 f32 ?v2) ?v_0))) ?v0)) f53) f1))))))))
(assert (forall ((?v0 S10) (?v1 S7) (?v2 S12) (?v3 S12) (?v4 S7) (?v5 S12) (?v6 S7) (?v7 S12) (?v8 S5)) (let ((?v_1 (f31 f32 ?v1)) (?v_2 (f6 f43 ?v4)) (?v_0 (f41 f42 ?v0))) (=> (= (f59 f63 ?v0) f1) (=> (= (f55 (f56 f57 ?v1) f65) f1) (=> (= (f25 (f26 f27 (f18 (f19 (f20 f21 ?v2) ?v3) (f30 ?v_1 ?v_2))) ?v_0) f1) (=> (= (f25 (f26 f27 (f18 (f19 (f20 f21 ?v5) ?v3) (f30 (f31 f32 (f33 f34 ?v3)) (f30 (f35 f36 (f6 f43 ?v6)) (f30 (f35 f36 (f38 f39 ?v7)) (f30 (f35 f36 (f6 f7 ?v1)) ?v8)))))) ?v_0) f1) (= (f59 f63 (f15 (f16 f17 (f18 (f19 (f20 f21 ?v3) ?v7) (f30 ?v_1 (f30 (f35 f36 ?v_2) ?v_2)))) ?v0)) f1))))))))
(assert (forall ((?v0 S7) (?v1 S10)) (let ((?v_0 (f56 f57 ?v0))) (=> (not (= (f3 (f4 f5 (f6 f7 ?v0)) (f11 f66 ?v1)) f1)) (=> (= (f55 ?v_0 f65) f1) (=> (= (f50 (f51 f52 ?v1) f53) f1) (not (= (f55 ?v_0 (f67 f68 (f9 f45 (f11 (f12 f13 f14) ?v1)))) f1))))))))
(assert (forall ((?v0 S10)) (exists ((?v1 S7)) (not (= (f3 (f4 f5 (f6 f43 ?v1)) (f11 f66 ?v0)) f1)))))
(check-sat)
(exit)
